\ LP format - for model browsing. Use MPS format to capture full model detail.
Minimize
  2 t+ + 5 c+
Subject To
 R0: C61 = 0
 R1: 12 C59 - C61 >= -26
 R2: - c+ - c- + C60 = 10
 R3: x_12 + x_13 = 1
 R4: <= -1
 R5: <= 0
 R6: - x_12 - x_13 + x_21 + x_31 = 0
 R7: x_12 - x_21 - x_24 - x_25 - x_26 + x_42 + x_52 + x_62 = 0
 R8: x_13 - x_31 - x_36 + x_63 = 0
 R9: x_24 - x_42 - x_45 - x_49 + x_54 + x_94 = 0
 R10: x_25 + x_45 - x_52 - x_54 - x_58 + x_85 = 0
 R11: x_26 + x_36 - x_62 - x_63 - x_67 - x_68 + x_76 + x_86 = 0
 R12: x_67 - x_76 - x_78 - x_711 + x_87 + x_117 = 0
 R13: x_58 + x_68 + x_78 - x_85 - x_86 - x_87 - x_89 - x_810 - x_811 + x_98
   + x_108 + x_118 = 0
 R14: x_49 + x_89 - x_94 - x_98 - x_912 - x_913 + x_129 + x_139 = 0
 R15: x_810 - x_108 - x_1012 = 0
 R16: x_711 + x_811 - x_117 - x_118 - x_1112 - x_1114 + x_1211 + x_1411
   = 0
 R17: x_912 + x_1012 + x_1112 - x_129 - x_1211 - x_1213 - x_1214 + x_1312
   + x_1412 = 0
 R18: x_913 + x_1213 - x_139 - x_1312 - x_1315 + x_1513 = 0
 R19: x_1114 + x_1214 - x_1411 - x_1412 - x_1416 - x_1417 + x_1614 + x_1714
   = 0
 R20: x_1315 - x_1513 - x_1516 + x_1615 = 0
 R21: x_1416 + x_1516 - x_1614 - x_1615 - x_1617 + x_1716 = 0
 R22: x_1417 + x_1617 - x_1714 - x_1716 = 0
 R23: <= 0
 R24: - t+ - t- + C61 = 20
 R25: C61 = 0
 R26: 12 C59 - C61 >= -26
 R27: - c+ - c- + C60 = 10
 R28: x_12 + x_13 = 1
 R29: <= -1
 R30: <= 0
 R31: - x_12 - x_13 + x_21 + x_31 = 0
 R32: x_12 - x_21 - x_24 - x_25 - x_26 + x_42 + x_52 + x_62 = 0
 R33: x_13 - x_31 - x_36 + x_63 = 0
 R34: x_24 - x_42 - x_45 - x_49 + x_54 + x_94 = 0
 R35: x_25 + x_45 - x_52 - x_54 - x_58 + x_85 = 0
 R36: x_26 + x_36 - x_62 - x_63 - x_67 - x_68 + x_76 + x_86 = 0
 R37: x_67 - x_76 - x_78 - x_711 + x_87 + x_117 = 0
 R38: x_58 + x_68 + x_78 - x_85 - x_86 - x_87 - x_89 - x_810 - x_811 + x_98
   + x_108 + x_118 = 0
 R39: x_49 + x_89 - x_94 - x_98 - x_912 - x_913 + x_129 + x_139 = 0
 R40: x_810 - x_108 - x_1012 = 0
 R41: x_711 + x_811 - x_117 - x_118 - x_1112 - x_1114 + x_1211 + x_1411
   = 0
 R42: x_912 + x_1012 + x_1112 - x_129 - x_1211 - x_1213 - x_1214 + x_1312
   + x_1412 = 0
 R43: x_913 + x_1213 - x_139 - x_1312 - x_1315 + x_1513 = 0
 R44: x_1114 + x_1214 - x_1411 - x_1412 - x_1416 - x_1417 + x_1614 + x_1714
   = 0
 R45: x_1315 - x_1513 - x_1516 + x_1615 = 0
 R46: x_1416 + x_1516 - x_1614 - x_1615 - x_1617 + x_1716 = 0
 R47: x_1417 + x_1617 - x_1714 - x_1716 = 0
 R48: <= 0
 R49: - t+ - t- + C61 = 20
 qc0: 189.9500773118757 C59 + C60 + [ - 7.151926050456758 C59 * C61 ] = 4
 qc1: 189.9500773118757 C59 + C60 + [ - 7.151926050456758 C59 * C61 ] = 4
Bounds
Binaries
 x_12 x_13 x_21 x_24 x_25 x_26 x_31 x_36 x_42 x_45 x_49 x_52 x_54 x_58 x_62
 x_63 x_67 x_68 x_76 x_78 x_711 x_85 x_86 x_87 x_89 x_810 x_811 x_94 x_98
 x_912 x_913 x_108 x_1012 x_117 x_118 x_1112 x_1114 x_129 x_1211 x_1213
 x_1214 x_139 x_1312 x_1315 x_1411 x_1412 x_1416 x_1417 x_1513 x_1516
 x_1614 x_1615 x_1617 x_1714 x_1716 C59
Generals
 t+ c+ t- c- C60 C61
End
